Z3/prácticasParejas/Minizink/Datos/data4.dzn
%datafile (con maximize tarda mucho)
nVeg = 13;
nNoVeg = 17;
nMeses=12;

VALOR = 200;
dureza = [200.8,195.1,155.0,160.2,180.4,165.7,200.9,160.6,205.1,10.4,178.8,195.9,203.0,155.5,165.0,185.0,204.3,201.2,165.0,180.9,205.1,155.4,158.8,196.9,202.0,205.1,179.0,157.2,198.4,200.7]; 

precios = [| 120,120,130,110,120,110,110,140,130,120,120,120,110,120,130,140,100,120,150,100,120,115,180,125,120,130,120,120,120,120 
           | 150,120,120,130,140,120,110,125,135,120,120,130,120,120,120,145,110,135,120,120,140,130,130,120,110,120,145,120,130,120
           | 120,125,120,140,120,120,120,120,135,120,120,110,120,115,100,155,110,120,120,140,120,120,130,120,125,120,140,120,120,115
           | 110,120,120,140,115,120,120,120,120,135,120,120,120,140,140,120,120,120,135,150,115,120,120,110,120,120,120,115,110,120
           | 140,120,110,125,120,120,120,120,120,130,120,120,130,140,120,140,100,120,150,100,120,115,180,125,120,130,120,120,120,120
           | 110,120,120,140,120,120,130,120,125,120,140,120,120,115,120,110,120,120,140,115,120,120,120,120,135,120,120,120,140,140
           | 110,120,120,140,115,120,120,120,120,135,120,120,120,140,140,120,125,120,140,120,120,120,120,135,120,120,110,120,115,100
           | 140,100,120,150,100,120,115,180,125,120,130,120,120,120,120,140,120,110,125,120,120,120,120,120,130,120,120,130,140,120
           | 120,120,120,135,150,115,120,120,110,120,120,120,115,110,120,150,120,120,130,140,120,110,125,135,120,120,130,120,120,120
           | 120,120,120,135,150,115,120,120,110,120,120,120,115,110,120,120,120,120,135,150,115,120,120,110,120,120,120,115,110,120
           | 140,120,125,120,140,120,120,120,120,135,120,120,110,120,115,120,120,120,135,150,115,120,120,110,120,120,120,115,110,120
           | 155,110,120,120,140,120,120,130,120,125,120,140,120,120,115,140,120,110,125,120,120,120,120,120,130,120,120,130,140,120 |];

MAXV = 2000;
MAXN = 2500;

MCAP = 4000;

CA = 10;



MinD = 170.0;
MaxD = 180.5;                
MinB = 2000000;

inicial = [400, 400, 400, 400, 500, 400, 400, 400, 400, 500, 400, 500,400, 400, 400, 400, 500, 400, 400, 400, 400, 500, 400, 500,400, 400, 400, 400, 500, 400 ];
PV = 15;

K = 21;
T = 380;
